proyfinal/src/viki/013/experimentInOfficeAgust.take6.output/c5a45a45-f589-45be-ba50-9949fc08cadd.als.out
Reading from standard input... Use '--help' for help.
============================[ Problem Statistics ]=============================
|                                                                             |
|  Number of variables:         87638                                         |
|  Number of clauses:          161767                                         |
|  Parse time:                   0.04 s                                       |
|                                                                             |
============================[ Search Statistics ]==============================
| Conflicts |          ORIGINAL         |          LEARNT          | Progress |
|           |    Vars  Clauses Literals |    Limit  Clauses Lit/Cl |          |
===============================================================================
|       100 |   62333   105001   262368 |    38500      100     23 | 28.874 % |
|       250 |   62333   105001   262368 |    42350      250     95 | 28.874 % |
|       475 |   62325   104959   262266 |    46585      474     71 | 28.884 % |
|       812 |   62325   104959   262266 |    51243      811     63 | 28.884 % |
|      1318 |   62324   104915   262176 |    56368     1314     54 | 28.885 % |
|      2077 |   62320   104899   262132 |    62005     2034     56 | 28.889 % |
|      3216 |   62320   104899   262132 |    68205     3173     83 | 28.889 % |
|      4924 |   50111    70827   178288 |    75026     4799     77 | 42.820 % |
|      7486 |   50107    70358   177152 |    82528     7339     72 | 42.825 % |
|     11330 |   49970    69903   176090 |    90781    10258     65 | 42.981 % |
===============================================================================
restarts              : 62
conflicts             : 14943          (7359 /sec)
decisions             : 44387          (0.00 % random) (21861 /sec)
propagations          : 21368058       (10523732 /sec)
conflict literals     : 913598         (49.81 % deleted)
Memory used           : 30.30 MB
CPU time              : 2.03046 s

UNSATISFIABLE
